TYPE : Vertex Cover
DIMENSION: 27
EDGE_DATA_SECTION:
0 7
0 18
0 22
1 6
1 7
1 20
2 13
3 5
3 15
4 9
5 11
5 21
5 23
6 20
6 23
7 15
7 20
8 13
8 14
8 19
8 25
9 10
9 11
11 21
12 13
12 14
13 14
13 25
14 18
14 20
16 18
16 21
16 22
17 21
18 24
19 21
19 22
20 26
21 22
21 25
23 26
-1
VERTEX_DEGREE:
3.0 3.0 1.0 2.0 1.0 4.0 3.0 4.0 4.0 3.0 1.0 3.0 2.0 5.0 5.0 2.0 3.0 1.0 4.0 3.0 5.0 7.0 4.0 3.0 1.0 3.0 2.0
VERTEX_COVER:
5 6 7 8 9 13 14 15 18 20 21 22 23
EOF
